db/data/732824495310422442814257184373056621208.z3.out
-------------------
2500.260661504
